c Sudoku solution
p cnf 729 0
112 0
126 0
193 0
225 0
241 0
269 0
286 0
292 0
375 0
424 0
466 0
516 0
558 0
573 0
618 0
627 0
643 0
672 0
696 0
839 0
856 0
346 0
874 0
895 0
945 0
964 0
987 0
999 0
913 0
433 0
323 0
319 0
253 0
529 0
532 0
798 0
952 0
442 0
749 0
362 0
817 0
848 0
411 0
635 0
497 0
661 0
715 0
734 0
936 0
928 0
776 0
971 0
214 0
168 0
155 0
751 0
863 0
767 0
722 0
821 0
783 0
882 0
459 0
565 0
547 0
654 0
485 0
478 0
689 0
144 0
357 0
277 0
179 0
388 0
394 0
181 0
137 0
331 0
238 0
584 0
591 0
